%SETS
JOBS     = 1..5;
MACHINES = 1..100;
SPEED    = 5;

time        = array3d(JOBS,MACHINES,1..SPEED,[29, 10, 7, 5, 5, 8, 2, 1, 1, 1, 34, 11, 8, 6, 6, 84, 29, 20, 17, 15, 7, 2, 1, 1, 1, 22, 7, 5, 4, 3, 23, 8, 5, 4, 4, 21, 7, 5, 4, 3, 6, 2, 1, 1, 1, 78, 27, 19, 16, 14, 15, 5, 3, 3, 2, 48, 16, 11, 9, 8, 31, 10, 7, 6, 5, 9, 3, 2, 1, 1, 43, 15, 10, 8, 7, 13, 4, 3, 2, 2, 55, 19, 13, 11, 9, 22, 7, 5, 4, 4, 55, 19, 13, 11, 9, 30, 10, 7, 6, 5, 33, 11, 8, 6, 6, 18, 6, 4, 3, 3, 80, 27, 19, 16, 14, 26, 9, 6, 5, 4, 14, 4, 3, 2, 2, 24, 8, 5, 4, 4, 1, 1, 1, 1, 1, 9, 3, 2, 1, 1, 27, 9, 6, 5, 5, 8, 3, 2, 1, 1, 24, 8, 6, 5, 4, 14, 5, 3, 2, 2, 3, 1, 1, 1, 1, 9, 3, 2, 1, 1, 21, 7, 5, 4, 3, 23, 7, 5, 4, 4, 22, 7, 5, 4, 3, 27, 9, 6, 5, 4, 27, 9, 6, 5, 4, 14, 5, 3, 2, 2, 58, 20, 14, 11, 10, 11, 4, 2, 2, 2, 14, 5, 3, 3, 2, 57, 19, 14, 11, 10, 42, 14, 10, 8, 7, 31, 10, 7, 6, 5, 2, 1, 1, 1, 1, 65, 22, 15, 13, 11, 32, 11, 7, 6, 5, 175, 60, 42, 35, 31, 4, 1, 1, 1, 1, 52, 18, 12, 10, 9, 4, 1, 1, 1, 1, 24, 8, 6, 5, 4, 3, 1, 1, 1, 1, 48, 16, 11, 9, 8, 42, 14, 10, 8, 7, 21, 7, 5, 4, 3, 13, 4, 3, 2, 2, 1, 1, 1, 1, 1, 30, 10, 7, 6, 5, 15, 5, 3, 3, 2, 33, 11, 8, 6, 5, 52, 17, 12, 10, 9, 96, 33, 23, 19, 17, 50, 17, 12, 10, 9, 1, 1, 1, 1, 1, 11, 3, 2, 2, 2, 33, 11, 8, 6, 6, 4, 1, 1, 1, 1, 19, 6, 4, 3, 3, 1, 1, 1, 1, 1, 5, 1, 1, 1, 1, 1, 1, 1, 1, 1, 40, 14, 10, 8, 7, 6, 2, 1, 1, 1, 10, 3, 2, 2, 1, 68, 23, 16, 13, 12, 31, 10, 7, 6, 5, 1, 1, 1, 1, 1, 4, 1, 1, 1, 1, 25, 8, 6, 5, 4, 22, 7, 5, 4, 4, 7, 2, 1, 1, 1, 70, 24, 17, 14, 12, 24, 8, 6, 5, 4, 19, 6, 4, 4, 3, 23, 7, 5, 4, 4, 33, 11, 8, 6, 6, 9, 3, 2, 1, 1, 13, 4, 3, 2, 2, 6, 2, 1, 1, 1, 5, 1, 1, 1, 1, 74, 25, 18, 15, 13, 34, 12, 8, 7, 6, 17, 6, 4, 3, 3, 6, 2, 1, 1, 1, 7, 2, 1, 1, 1, 1, 1, 1, 1, 1, 14, 5, 3, 2, 2, 9, 3, 2, 1, 1, 30, 10, 7, 6, 5, 12, 4, 3, 2, 2, 5, 1, 1, 1, 1, 1, 1, 1, 1, 1, 1, 1, 1, 1, 1, 29, 10, 7, 5, 5, 15, 5, 3, 3, 2, 19, 6, 4, 4, 3, 58, 20, 14, 11, 10, 120, 41, 29, 24, 21, 6, 2, 1, 1, 1, 28, 9, 6, 5, 5, 7, 2, 1, 1, 1, 1, 1, 1, 1, 1, 36, 12, 9, 7, 6, 9, 3, 2, 2, 1, 12, 4, 3, 2, 2, 22, 7, 5, 4, 4, 46, 15, 11, 9, 8, 25, 8, 6, 5, 4, 53, 18, 13, 10, 9, 8, 2, 2, 1, 1, 41, 14, 10, 8, 7, 5, 1, 1, 1, 1, 79, 27, 19, 16, 14, 30, 10, 7, 6, 5, 6, 2, 1, 1, 1, 76, 26, 18, 15, 13, 33, 11, 8, 6, 6, 7, 2, 1, 1, 1, 6, 2, 1, 1, 1, 18, 6, 4, 3, 3, 1, 1, 1, 1, 1, 6, 2, 1, 1, 1, 14, 4, 3, 2, 2, 12, 4, 2, 2, 2, 16, 5, 3, 3, 2, 8, 2, 2, 1, 1, 22, 7, 5, 4, 4, 51, 17, 12, 10, 9, 3, 1, 1, 1, 1, 18, 6, 4, 3, 3, 3, 1, 1, 1, 1, 32, 11, 7, 6, 5, 13, 4, 3, 2, 2, 21, 7, 5, 4, 3, 5, 1, 1, 1, 1, 4, 1, 1, 1, 1, 17, 5, 4, 3, 3, 11, 3, 2, 2, 2, 72, 25, 17, 14, 13, 37, 12, 9, 7, 6, 35, 12, 8, 7, 6, 60, 20, 14, 12, 10, 2, 1, 1, 1, 1, 20, 7, 5, 4, 3, 22, 7, 5, 4, 4, 84, 29, 20, 17, 15, 8, 3, 2, 1, 1, 7, 2, 1, 1, 1, 2, 1, 1, 1, 1, 1, 1, 1, 1, 1, 68, 23, 16, 13, 12, 28, 9, 7, 5, 5, 39, 13, 9, 8, 7, 8, 2, 2, 1, 1, 22, 7, 5, 4, 4, 1, 1, 1, 1, 1, 17, 5, 4, 3, 3, 98, 33, 24, 19, 17, 54, 18, 13, 11, 9, 10, 3, 2, 2, 1, 84, 29, 20, 17, 15, 6, 2, 1, 1, 1, 77, 26, 18, 15, 13, 73, 25, 17, 14, 13, 41, 14, 10, 8, 7, 25, 8, 6, 5, 4, 53, 18, 13, 10, 9, 8, 3, 2, 1, 1, 48, 16, 11, 9, 8, 24, 8, 6, 5, 4, 1, 1, 1, 1, 1, 11, 3, 2, 2, 1, 4, 1, 1, 1, 1, 103, 35, 25, 21, 18, 16, 5, 4, 3, 3, 17, 6, 4, 3, 3, 26, 9, 6, 5, 4, 11, 4, 2, 2, 2, 3, 1, 1, 1, 1, 44, 15, 10, 9, 8, 5, 1, 1, 1, 1, 18, 6, 4, 3, 3, 6, 2, 1, 1, 1, 2, 1, 1, 1, 1, 51, 17, 12, 10, 9, 93, 32, 22, 18, 16, 83, 28, 20, 17, 15, 61, 21, 15, 12, 11, 38, 13, 9, 7, 6, 10, 3, 2, 2, 1, 2, 1, 1, 1, 1, 13, 4, 3, 2, 2, 6, 2, 1, 1, 1, 3, 1, 1, 1, 1, 1, 1, 1, 1, 1, 33, 11, 8, 6, 6, 1, 1, 1, 1, 1, 38, 13, 9, 7, 6, 4, 1, 1, 1, 1, 2, 1, 1, 1, 1, 2, 1, 1, 1, 1, 28, 9, 7, 5, 5, 7, 2, 1, 1, 1, 14, 4, 3, 2, 2, 21, 7, 5, 4, 3, 50, 17, 12, 10, 9, 33, 11, 8, 6, 6, 8, 2, 1, 1, 1, 3, 1, 1, 1, 1, 1, 1, 1, 1, 1, 9, 3, 2, 1, 1, 7, 2, 1, 1, 1, 15, 5, 3, 3, 2, 29, 10, 7, 6, 5, 30, 10, 7, 6, 5, 8, 2, 2, 1, 1, 12, 4, 3, 2, 2, 5, 1, 1, 1, 1, 40, 13, 9, 8, 7, 1, 1, 1, 1, 1, 30, 10, 7, 6, 5, 39, 13, 9, 7, 7, 38, 13, 9, 7, 6, 7, 2, 1, 1, 1, 12, 4, 2, 2, 2, 22, 7, 5, 4, 4, 8, 2, 2, 1, 1, 11, 4, 2, 2, 2, 5, 1, 1, 1, 1, 15, 5, 3, 3, 2, 1, 1, 1, 1, 1, 41, 14, 10, 8, 7, 2, 1, 1, 1, 1, 18, 6, 4, 3, 3, 9, 3, 2, 1, 1, 22, 7, 5, 4, 4, 82, 28, 20, 16, 14, 26, 9, 6, 5, 4, 1, 1, 1, 1, 1, 14, 5, 3, 2, 2, 18, 6, 4, 3, 3, 19, 6, 4, 4, 3, 29, 10, 7, 6, 5, 8, 2, 2, 1, 1, 3, 1, 1, 1, 1, 12, 4, 3, 2, 2, 81, 27, 19, 16, 14, 5, 1, 1, 1, 1, 60, 20, 14, 12, 10, 20, 7, 4, 4, 3, 15, 5, 3, 3, 2, 55, 19, 13, 11, 9, 15, 5, 3, 3, 2, 33, 11, 8, 6, 5, 13, 4, 3, 2, 2, 60, 20, 14, 12, 10, 30, 10, 7, 6, 5, 31, 10, 7, 6, 5, 10, 3, 2, 2, 1, 36, 12, 8, 7, 6, 26, 9, 6, 5, 4, 7, 2, 1, 1, 1, 4, 1, 1, 1, 1, 41, 14, 10, 8, 7, 82, 28, 20, 16, 14, 15, 5, 3, 3, 2, 23, 7, 5, 4, 4, 50, 17, 12, 10, 9, 15, 5, 3, 3, 2, 78, 27, 19, 15, 14, 22, 7, 5, 4, 3, 44, 15, 10, 9, 8, 61, 21, 15, 12, 11, 43, 15, 10, 8, 7, 4, 1, 1, 1, 1, 25, 8, 6, 5, 4, 13, 4, 3, 2, 2, 1, 1, 1, 1, 1, 14, 4, 3, 2, 2, 7, 2, 1, 1, 1, 48, 16, 11, 9, 8, 1, 1, 1, 1, 1, 82, 28, 20, 16, 14, 11, 3, 2, 2, 2, 11, 3, 2, 2, 2, 1, 1, 1, 1, 1, 5, 1, 1, 1, 1, 13, 4, 3, 2, 2, 68, 23, 16, 13, 12, 2, 1, 1, 1, 1, 75, 25, 18, 15, 13, 52, 18, 12, 10, 9, 15, 5, 3, 3, 2, 10, 3, 2, 2, 1, 6, 2, 1, 1, 1, 24, 8, 6, 5, 4, 1, 1, 1, 1, 1, 1, 1, 1, 1, 1, 14, 5, 3, 2, 2, 1, 1, 1, 1, 1, 7, 2, 1, 1, 1, 6, 2, 1, 1, 1, 7, 2, 1, 1, 1, 3, 1, 1, 1, 1, 1, 1, 1, 1, 1, 3, 1, 1, 1, 1, 24, 8, 6, 5, 4, 94, 32, 23, 19, 17, 120, 41, 29, 24, 21, 13, 4, 3, 2, 2, 4, 1, 1, 1, 1, 26, 9, 6, 5, 4, 17, 6, 4, 3, 3, 117, 40, 28, 23, 21, 1, 1, 1, 1, 1, 39, 13, 9, 8, 7, 8, 3, 2, 1, 1, 7, 2, 1, 1, 1, 28, 9, 6, 5, 5, 7, 2, 1, 1, 1, 28, 9, 6, 5, 5, 18, 6, 4, 3, 3, 14, 4, 3, 2, 2, 20, 7, 5, 4, 3, 8, 3, 2, 1, 1, 31, 10, 7, 6, 5, 13, 4, 3, 2, 2, 11, 3, 2, 2, 2, 45, 15, 11, 9, 8, 67, 23, 16, 13, 12, 1, 1, 1, 1, 1, 6, 2, 1, 1, 1, 11, 3, 2, 2, 1, 43, 15, 10, 8, 7, 109, 37, 26, 22, 19, 89, 31, 22, 18, 16, 60, 21, 14, 12, 10, 9, 3, 2, 1, 1, 124, 43, 30, 25, 22, 7, 2, 1, 1, 1, 2, 1, 1, 1, 1, 78, 26, 19, 15, 14, 6, 2, 1, 1, 1, 30, 10, 7, 6, 5, 1, 1, 1, 1, 1, 33, 11, 8, 6, 6, 55, 19, 13, 11, 9, 8, 2, 2, 1, 1, 12, 4, 3, 2, 2, 12, 4, 2, 2, 2, 35, 12, 8, 7, 6, 7, 2, 1, 1, 1, 4, 1, 1, 1, 1, 15, 5, 3, 3, 2, 9, 3, 2, 1, 1, 47, 16, 11, 9, 8, 7, 2, 1, 1, 1, 18, 6, 4, 3, 3, 73, 25, 18, 15, 13, 26, 8, 6, 5, 4, 52, 18, 12, 10, 9, 72, 25, 17, 14, 13, 35, 12, 8, 7, 6, 31, 10, 7, 6, 5, 89, 30, 21, 18, 16, 134, 46, 32, 27, 24, 15, 5, 3, 3, 2, 1, 1, 1, 1, 1, 8, 3, 2, 1, 1, 4, 1, 1, 1, 1, 13, 4, 3, 2, 2, 3, 1, 1, 1, 1, 23, 8, 5, 4, 4, 12, 4, 3, 2, 2, 58, 20, 14, 11, 10, 88, 30, 21, 18, 16, 20, 7, 5, 4, 3, 8, 2, 2, 1, 1, 23, 8, 5, 4, 4, 58, 20, 14, 11, 10, 13, 4, 3, 2, 2, 20, 7, 5, 4, 3, 8, 2, 2, 1, 1, 15, 5, 3, 3, 2, 13, 4, 3, 2, 2, 7, 2, 1, 1, 1, 18, 6, 4, 3, 3, 9, 3, 2, 1, 1, 12, 4, 2, 2, 2, 19, 6, 4, 3, 3, 35, 12, 8, 7, 6, 10, 3, 2, 2, 1, 66, 23, 16, 13, 12, 51, 17, 12, 10, 9, 1, 1, 1, 1, 1, 7, 2, 1, 1, 1, 15, 5, 3, 3, 2, 2, 1, 1, 1, 1, 11, 3, 2, 2, 1, 34, 12, 8, 7, 6, 29, 10, 7, 6, 5, 25, 8, 6, 5, 4, 32, 11, 7, 6, 5, 5, 2, 1, 1, 1, 10, 3, 2, 2, 1, 29, 10, 7, 5, 5, 54, 18, 13, 11, 9, 20, 7, 4, 4, 3, 8, 2, 2, 1, 1, 1, 1, 1, 1, 1, 32, 11, 7, 6, 5, 1, 1, 1, 1, 1, 12, 4, 2, 2, 2, 19, 6, 4, 3, 3, 66, 22, 16, 13, 11, 2, 1, 1, 1, 1, 13, 4, 3, 2, 2, 1, 1, 1, 1, 1, 10, 3, 2, 2, 1, 25, 8, 6, 5, 4, 8, 2, 2, 1, 1, 6, 2, 1, 1, 1, 3, 1, 1, 1, 1, 22, 7, 5, 4, 4, 30, 10, 7, 6, 5, 28, 9, 7, 5, 5, 76, 26, 18, 15, 13, 1, 1, 1, 1, 1, 26, 9, 6, 5, 4, 23, 8, 5, 4, 4, 22, 7, 5, 4, 4, 85, 29, 20, 17, 15, 1, 1, 1, 1, 1, 30, 10, 7, 6, 5, 43, 15, 10, 8, 7, 18, 6, 4, 3, 3, 10, 3, 2, 2, 1, 40, 13, 9, 8, 7, 2, 1, 1, 1, 1, 15, 5, 3, 3, 2, 18, 6, 4, 3, 3, 30, 10, 7, 6, 5, 2, 1, 1, 1, 1, 6, 2, 1, 1, 1, 13, 4, 3, 2, 2, 25, 8, 6, 5, 4, 56, 19, 13, 11, 10, 24, 8, 6, 5, 4, 3, 1, 1, 1, 1, 101, 35, 24, 20, 18, 53, 18, 13, 10, 9, 18, 6, 4, 3, 3, 66, 22, 16, 13, 11, 20, 6, 4, 4, 3, 66, 22, 16, 13, 11, 45, 15, 11, 9, 8, 89, 30, 21, 18, 16, 65, 22, 15, 13, 11, 1, 1, 1, 1, 1, 4, 1, 1, 1, 1, 12, 4, 3, 2, 2, 78, 27, 19, 16, 14, 9, 3, 2, 1, 1, 4, 1, 1, 1, 1, 56, 19, 13, 11, 10, 15, 5, 3, 3, 2, 61, 21, 15, 12, 11, 4, 1, 1, 1, 1, 28, 9, 6, 5, 5, 15, 5, 3, 3, 2, 2, 1, 1, 1, 1, 30, 10, 7, 6, 5, 7, 2, 1, 1, 1, 1, 1, 1, 1, 1, 1, 1, 1, 1, 1, 1, 1, 1, 1, 1, 61, 21, 15, 12, 11, 34, 12, 8, 7, 6, 59, 20, 14, 12, 10, 28, 9, 7, 5, 5, 19, 6, 4, 3, 3, 9, 3, 2, 1, 1, 160, 55, 39, 32, 28, 11, 4, 2, 2, 2, 16, 5, 4, 3, 2, 12, 4, 3, 2, 2, 100, 34, 24, 20, 18]);
energy      = array3d(JOBS,MACHINES,1..SPEED,[74, 90, 93, 95, 95, 92, 98, 99, 99, 99, 71, 89, 92, 94, 94, 43, 74, 81, 84, 86, 93, 98, 99, 99, 99, 80, 93, 95, 96, 97, 79, 92, 95, 96, 96, 81, 93, 95, 96, 97, 94, 98, 99, 99, 99, 45, 76, 82, 85, 86, 86, 95, 97, 97, 98, 61, 85, 89, 91, 92, 73, 90, 93, 94, 95, 91, 97, 98, 99, 99, 65, 86, 90, 92, 93, 87, 96, 97, 98, 98, 57, 82, 87, 89, 91, 80, 93, 95, 96, 96, 57, 82, 87, 89, 91, 74, 90, 93, 94, 95, 71, 89, 92, 94, 94, 83, 94, 96, 97, 97, 44, 76, 82, 85, 86, 77, 91, 94, 95, 96, 86, 96, 97, 98, 98, 78, 92, 95, 96, 96, 99, 99, 99, 99, 99, 91, 97, 98, 99, 99, 76, 91, 94, 95, 95, 92, 97, 98, 99, 99, 78, 92, 94, 95, 96, 86, 95, 97, 98, 98, 97, 99, 99, 99, 99, 91, 97, 98, 99, 99, 81, 93, 95, 96, 97, 79, 93, 95, 96, 96, 80, 93, 95, 96, 97, 76, 91, 94, 95, 96, 76, 91, 94, 95, 96, 86, 95, 97, 98, 98, 55, 81, 86, 89, 90, 89, 96, 98, 98, 98, 86, 95, 97, 97, 98, 56, 82, 86, 89, 90, 65, 86, 90, 92, 93, 73, 90, 93, 94, 95, 98, 99, 99, 99, 99, 52, 80, 86, 87, 89, 72, 89, 93, 94, 95, 17, 54, 65, 70, 73, 96, 99, 99, 99, 99, 59, 83, 88, 90, 91, 96, 99, 99, 99, 99, 78, 92, 94, 95, 96, 97, 99, 99, 99, 99, 61, 85, 89, 91, 92, 65, 86, 90, 92, 93, 81, 93, 95, 96, 97, 87, 96, 97, 98, 98, 99, 99, 99, 99, 99, 74, 90, 93, 94, 95, 86, 95, 97, 97, 98, 71, 89, 92, 94, 95, 59, 84, 88, 90, 91, 38, 71, 79, 82, 84, 60, 84, 88, 90, 91, 99, 99, 99, 99, 99, 89, 97, 98, 98, 98, 71, 89, 92, 94, 94, 96, 99, 99, 99, 99, 82, 94, 96, 97, 97, 99, 99, 99, 99, 99, 95, 99, 99, 99, 99, 99, 99, 99, 99, 99, 67, 86, 90, 92, 93, 94, 98, 99, 99, 99, 90, 97, 98, 98, 99, 50, 79, 85, 87, 88, 73, 90, 93, 94, 95, 99, 99, 99, 99, 99, 96, 99, 99, 99, 99, 77, 92, 94, 95, 96, 80, 93, 95, 96, 96, 93, 98, 99, 99, 99, 49, 78, 84, 86, 88, 78, 92, 94, 95, 96, 82, 94, 96, 96, 97, 79, 93, 95, 96, 96, 71, 89, 92, 94, 94, 91, 97, 98, 99, 99, 87, 96, 97, 98, 98, 94, 98, 99, 99, 99, 95, 99, 99, 99, 99, 47, 77, 83, 86, 87, 71, 88, 92, 93, 94, 84, 94, 96, 97, 97, 94, 98, 99, 99, 99, 93, 98, 99, 99, 99, 99, 99, 99, 99, 99, 86, 95, 97, 98, 98, 91, 97, 98, 99, 99, 74, 90, 93, 94, 95, 88, 96, 97, 98, 98, 95, 99, 99, 99, 99, 99, 99, 99, 99, 99, 99, 99, 99, 99, 99, 74, 90, 93, 95, 95, 86, 95, 97, 97, 98, 82, 94, 96, 96, 97, 55, 81, 86, 89, 90, 30, 66, 74, 78, 81, 94, 98, 99, 99, 99, 75, 91, 94, 95, 95, 93, 98, 99, 99, 99, 99, 99, 99, 99, 99, 69, 88, 91, 93, 94, 91, 97, 98, 98, 99, 88, 96, 97, 98, 98, 80, 93, 95, 96, 96, 63, 86, 89, 91, 92, 77, 92, 94, 95, 96, 58, 83, 87, 90, 91, 92, 98, 98, 99, 99, 66, 86, 90, 92, 93, 95, 99, 99, 99, 99, 45, 76, 82, 85, 86, 74, 90, 93, 94, 95, 94, 98, 99, 99, 99, 46, 77, 83, 86, 87, 71, 89, 92, 94, 94, 93, 98, 99, 99, 99, 94, 98, 99, 99, 99, 83, 94, 96, 97, 97, 99, 99, 99, 99, 99, 94, 98, 99, 99, 99, 86, 96, 97, 98, 98, 88, 96, 98, 98, 98, 85, 95, 97, 97, 98, 92, 98, 98, 99, 99, 80, 93, 95, 96, 96, 60, 84, 88, 90, 91, 97, 99, 99, 99, 99, 83, 94, 96, 97, 97, 97, 99, 99, 99, 99, 72, 89, 93, 94, 95, 87, 96, 97, 98, 98, 81, 93, 95, 96, 97, 95, 99, 99, 99, 99, 96, 99, 99, 99, 99, 84, 95, 96, 97, 97, 89, 97, 98, 98, 98, 48, 77, 84, 86, 87, 69, 88, 91, 93, 94, 70, 88, 92, 93, 94, 54, 81, 86, 88, 90, 98, 99, 99, 99, 99, 81, 93, 95, 96, 97, 80, 93, 95, 96, 96, 43, 74, 81, 84, 86, 92, 97, 98, 99, 99, 93, 98, 99, 99, 99, 98, 99, 99, 99, 99, 99, 99, 99, 99, 99, 50, 79, 85, 87, 88, 75, 91, 93, 95, 95, 67, 87, 91, 92, 93, 92, 98, 98, 99, 99, 80, 93, 95, 96, 96, 99, 99, 99, 99, 99, 84, 95, 96, 97, 97, 37, 71, 78, 82, 84, 58, 83, 87, 89, 91, 90, 97, 98, 98, 99, 43, 74, 81, 84, 86, 94, 98, 99, 99, 99, 46, 77, 83, 86, 87, 48, 77, 84, 86, 87, 66, 86, 90, 92, 93, 77, 92, 94, 95, 96, 58, 83, 87, 90, 91, 92, 97, 98, 99, 99, 61, 85, 89, 91, 92, 78, 92, 94, 95, 96, 99, 99, 99, 99, 99, 89, 97, 98, 98, 99, 96, 99, 99, 99, 99, 35, 70, 77, 81, 83, 85, 95, 96, 97, 97, 84, 94, 96, 97, 97, 77, 91, 94, 95, 96, 89, 96, 98, 98, 98, 97, 99, 99, 99, 99, 64, 86, 90, 91, 92, 95, 99, 99, 99, 99, 83, 94, 96, 97, 97, 94, 98, 99, 99, 99, 98, 99, 99, 99, 99, 60, 84, 88, 90, 91, 39, 72, 80, 83, 85, 43, 75, 81, 84, 86, 54, 81, 86, 88, 89, 68, 87, 91, 93, 94, 90, 97, 98, 98, 99, 98, 99, 99, 99, 99, 87, 96, 97, 98, 98, 94, 98, 99, 99, 99, 97, 99, 99, 99, 99, 99, 99, 99, 99, 99, 71, 89, 92, 94, 94, 99, 99, 99, 99, 99, 68, 87, 91, 93, 94, 96, 99, 99, 99, 99, 98, 99, 99, 99, 99, 98, 99, 99, 99, 99, 75, 91, 93, 95, 95, 93, 98, 99, 99, 99, 86, 96, 97, 98, 98, 81, 93, 95, 96, 97, 60, 84, 88, 90, 91, 71, 89, 92, 94, 94, 92, 98, 99, 99, 99, 97, 99, 99, 99, 99, 99, 99, 99, 99, 99, 91, 97, 98, 99, 99, 93, 98, 99, 99, 99, 86, 95, 97, 97, 98, 74, 90, 93, 94, 95, 74, 90, 93, 94, 95, 92, 98, 98, 99, 99, 88, 96, 97, 98, 98, 95, 99, 99, 99, 99, 67, 87, 91, 92, 93, 99, 99, 99, 99, 99, 74, 90, 93, 94, 95, 67, 87, 91, 93, 93, 68, 87, 91, 93, 94, 93, 98, 99, 99, 99, 88, 96, 98, 98, 98, 80, 93, 95, 96, 96, 92, 98, 98, 99, 99, 89, 96, 98, 98, 98, 95, 99, 99, 99, 99, 86, 95, 97, 97, 98, 99, 99, 99, 99, 99, 66, 86, 90, 92, 93, 98, 99, 99, 99, 99, 83, 94, 96, 97, 97, 91, 97, 98, 99, 99, 80, 93, 95, 96, 96, 44, 75, 81, 85, 86, 77, 91, 94, 95, 96, 99, 99, 99, 99, 99, 86, 95, 97, 98, 98, 83, 94, 96, 97, 97, 82, 94, 96, 96, 97, 74, 90, 93, 94, 95, 92, 98, 98, 99, 99, 97, 99, 99, 99, 99, 88, 96, 97, 98, 98, 44, 76, 82, 85, 86, 95, 99, 99, 99, 99, 54, 81, 86, 88, 90, 81, 93, 96, 96, 97, 86, 95, 97, 97, 98, 57, 82, 87, 89, 91, 86, 95, 97, 97, 98, 71, 89, 92, 94, 95, 87, 96, 97, 98, 98, 54, 81, 86, 88, 90, 74, 90, 93, 94, 95, 73, 90, 93, 94, 95, 90, 97, 98, 98, 99, 69, 88, 92, 93, 94, 77, 91, 94, 95, 96, 93, 98, 99, 99, 99, 96, 99, 99, 99, 99, 66, 86, 90, 92, 93, 44, 75, 81, 85, 86, 86, 95, 97, 97, 98, 79, 93, 95, 96, 96, 60, 84, 88, 90, 91, 86, 95, 97, 97, 98, 45, 76, 82, 86, 86, 80, 93, 95, 96, 97, 64, 86, 90, 91, 92, 54, 81, 86, 88, 89, 65, 86, 90, 92, 93, 96, 99, 99, 99, 99, 77, 92, 94, 95, 96, 87, 96, 97, 98, 98, 99, 99, 99, 99, 99, 86, 96, 97, 98, 98, 93, 98, 99, 99, 99, 61, 85, 89, 91, 92, 99, 99, 99, 99, 99, 44, 75, 81, 85, 86, 89, 97, 98, 98, 98, 89, 97, 98, 98, 98, 99, 99, 99, 99, 99, 95, 99, 99, 99, 99, 87, 96, 97, 98, 98, 50, 79, 85, 87, 88, 98, 99, 99, 99, 99, 47, 77, 83, 86, 87, 59, 83, 88, 90, 91, 86, 95, 97, 97, 98, 90, 97, 98, 98, 99, 94, 98, 99, 99, 99, 78, 92, 94, 95, 96, 99, 99, 99, 99, 99, 99, 99, 99, 99, 99, 86, 95, 97, 98, 98, 99, 99, 99, 99, 99, 93, 98, 99, 99, 99, 94, 98, 99, 99, 99, 93, 98, 99, 99, 99, 97, 99, 99, 99, 99, 99, 99, 99, 99, 99, 97, 99, 99, 99, 99, 78, 92, 94, 95, 96, 39, 72, 79, 82, 84, 30, 66, 74, 78, 81, 87, 96, 97, 98, 98, 96, 99, 99, 99, 99, 77, 91, 94, 95, 96, 84, 94, 96, 97, 97, 31, 67, 75, 79, 81, 99, 99, 99, 99, 99, 67, 87, 91, 92, 93, 92, 97, 98, 99, 99, 93, 98, 99, 99, 99, 75, 91, 94, 95, 95, 93, 98, 99, 99, 99, 75, 91, 94, 95, 95, 83, 94, 96, 97, 97, 86, 96, 97, 98, 98, 81, 93, 95, 96, 97, 92, 97, 98, 99, 99, 73, 90, 93, 94, 95, 87, 96, 97, 98, 98, 89, 97, 98, 98, 98, 63, 86, 89, 91, 92, 51, 79, 85, 87, 88, 99, 99, 99, 99, 99, 94, 98, 99, 99, 99, 89, 97, 98, 98, 99, 65, 86, 90, 92, 93, 33, 69, 77, 80, 82, 41, 73, 80, 83, 85, 54, 81, 86, 88, 90, 91, 97, 98, 99, 99, 28, 65, 74, 77, 80, 93, 98, 99, 99, 99, 98, 99, 99, 99, 99, 45, 77, 82, 86, 86, 94, 98, 99, 99, 99, 74, 90, 93, 94, 95, 99, 99, 99, 99, 99, 71, 89, 92, 94, 94, 57, 82, 87, 89, 91, 92, 98, 98, 99, 99, 88, 96, 97, 98, 98, 88, 96, 98, 98, 98, 70, 88, 92, 93, 94, 93, 98, 99, 99, 99, 96, 99, 99, 99, 99, 86, 95, 97, 97, 98, 91, 97, 98, 99, 99, 62, 85, 89, 91, 92, 93, 98, 99, 99, 99, 83, 94, 96, 97, 97, 48, 77, 83, 86, 87, 77, 92, 94, 95, 96, 59, 83, 88, 90, 91, 48, 77, 84, 86, 87, 70, 88, 92, 93, 94, 73, 90, 93, 94, 95, 41, 74, 81, 83, 85, 26, 63, 72, 76, 78, 86, 95, 97, 97, 98, 99, 99, 99, 99, 99, 92, 97, 98, 99, 99, 96, 99, 99, 99, 99, 87, 96, 97, 98, 98, 97, 99, 99, 99, 99, 79, 92, 95, 96, 96, 88, 96, 97, 98, 98, 55, 81, 86, 89, 90, 41, 74, 81, 83, 85, 81, 93, 95, 96, 97, 92, 98, 98, 99, 99, 79, 92, 95, 96, 96, 55, 81, 86, 89, 90, 87, 96, 97, 98, 98, 81, 93, 95, 96, 97, 92, 98, 98, 99, 99, 86, 95, 97, 97, 98, 87, 96, 97, 98, 98, 93, 98, 99, 99, 99, 83, 94, 96, 97, 97, 91, 97, 98, 99, 99, 88, 96, 98, 98, 98, 82, 94, 96, 97, 97, 70, 88, 92, 93, 94, 90, 97, 98, 98, 99, 51, 79, 85, 87, 88, 60, 84, 88, 90, 91, 99, 99, 99, 99, 99, 93, 98, 99, 99, 99, 86, 95, 97, 97, 98, 98, 99, 99, 99, 99, 89, 97, 98, 98, 99, 71, 88, 92, 93, 94, 74, 90, 93, 94, 95, 77, 92, 94, 95, 96, 72, 89, 93, 94, 95, 95, 98, 99, 99, 99, 90, 97, 98, 98, 99, 74, 90, 93, 95, 95, 58, 83, 87, 89, 91, 81, 93, 96, 96, 97, 92, 98, 98, 99, 99, 99, 99, 99, 99, 99, 72, 89, 93, 94, 95, 99, 99, 99, 99, 99, 88, 96, 98, 98, 98, 82, 94, 96, 97, 97, 51, 80, 85, 87, 89, 98, 99, 99, 99, 99, 87, 96, 97, 98, 98, 99, 99, 99, 99, 99, 90, 97, 98, 98, 99, 77, 92, 94, 95, 96, 92, 98, 98, 99, 99, 94, 98, 99, 99, 99, 97, 99, 99, 99, 99, 80, 93, 95, 96, 96, 74, 90, 93, 94, 95, 75, 91, 93, 95, 95, 46, 77, 83, 86, 87, 99, 99, 99, 99, 99, 77, 91, 94, 95, 96, 79, 92, 95, 96, 96, 80, 93, 95, 96, 96, 42, 74, 81, 84, 86, 99, 99, 99, 99, 99, 74, 90, 93, 94, 95, 65, 86, 90, 92, 93, 83, 94, 96, 97, 97, 90, 97, 98, 98, 99, 67, 87, 91, 92, 93, 98, 99, 99, 99, 99, 86, 95, 97, 97, 98, 83, 94, 96, 97, 97, 74, 90, 93, 94, 95, 98, 99, 99, 99, 99, 94, 98, 99, 99, 99, 87, 96, 97, 98, 98, 77, 92, 94, 95, 96, 57, 82, 87, 89, 90, 78, 92, 94, 95, 96, 97, 99, 99, 99, 99, 36, 70, 78, 81, 83, 58, 83, 87, 90, 91, 83, 94, 96, 97, 97, 51, 80, 85, 87, 89, 81, 94, 96, 96, 97, 51, 80, 85, 87, 89, 63, 86, 89, 91, 92, 41, 74, 81, 83, 85, 52, 80, 86, 87, 89, 99, 99, 99, 99, 99, 96, 99, 99, 99, 99, 88, 96, 97, 98, 98, 45, 76, 82, 85, 86, 91, 97, 98, 99, 99, 96, 99, 99, 99, 99, 57, 82, 87, 89, 90, 86, 95, 97, 97, 98, 54, 81, 86, 88, 89, 96, 99, 99, 99, 99, 75, 91, 94, 95, 95, 86, 95, 97, 97, 98, 98, 99, 99, 99, 99, 74, 90, 93, 94, 95, 93, 98, 99, 99, 99, 99, 99, 99, 99, 99, 99, 99, 99, 99, 99, 99, 99, 99, 99, 99, 54, 81, 86, 88, 89, 71, 88, 92, 93, 94, 55, 81, 86, 88, 90, 75, 91, 93, 95, 95, 82, 94, 96, 97, 97, 91, 97, 98, 99, 99, 20, 57, 67, 72, 75, 89, 96, 98, 98, 98, 85, 95, 96, 97, 98, 88, 96, 97, 98, 98, 36, 71, 78, 81, 83]);
precedence  = array2d(JOBS,MACHINES,[74, 42, 49, 27, 95, 46, 70, 61, 48, 33, 47, 64, 2, 26, 11, 35, 80, 68, 52, 96, 94, 50, 98, 76, 36, 10, 71, 5, 9, 82, 97, 22, 54, 62, 8, 37, 53, 81, 45, 79, 99, 89, 7, 67, 38, 44, 40, 56, 58, 29, 6, 85, 0, 43, 55, 60, 18, 12, 1, 83, 90, 57, 15, 72, 63, 77, 28, 92, 31, 30, 21, 59, 75, 20, 93, 25, 51, 17, 19, 16, 13, 86, 78, 24, 39, 14, 91, 23, 84, 69, 87, 73, 41, 4, 34, 32, 66, 3, 65, 88, 31, 1, 7, 78, 53, 22, 96, 72, 42, 59, 81, 29, 32, 24, 45, 65, 55, 79, 19, 11, 99, 89, 95, 6, 23, 14, 66, 83, 40, 77, 76, 43, 87, 20, 92, 8, 51, 47, 98, 60, 91, 84, 86, 39, 85, 17, 3, 0, 82, 16, 5, 71, 12, 18, 38, 35, 33, 4, 41, 15, 73, 57, 48, 2, 97, 21, 74, 10, 80, 64, 62, 9, 56, 26, 93, 75, 25, 58, 61, 94, 36, 63, 37, 46, 28, 13, 34, 49, 54, 67, 27, 68, 88, 52, 69, 44, 50, 70, 90, 30, 10, 94, 75, 6, 39, 77, 34, 63, 81, 44, 32, 21, 42, 9, 71, 64, 56, 50, 26, 86, 78, 70, 47, 27, 76, 91, 25, 88, 73, 61, 29, 14, 48, 68, 1, 60, 5, 20, 45, 30, 36, 18, 52, 87, 62, 85, 80, 24, 58, 57, 89, 53, 0, 19, 43, 3, 41, 2, 22, 46, 11, 35, 12, 15, 79, 96, 4, 82, 59, 97, 23, 95, 51, 33, 37, 67, 55, 90, 28, 13, 84, 16, 8, 31, 7, 49, 65, 83, 66, 98, 54, 38, 74, 17, 93, 92, 72, 69, 40, 99, 9, 40, 62, 80, 65, 82, 24, 61, 79, 47, 38, 98, 68, 33, 32, 66, 84, 26, 42, 91, 17, 22, 81, 31, 36, 53, 44, 34, 14, 48, 25, 35, 6, 5, 74, 45, 93, 28, 37, 71, 15, 86, 19, 29, 20, 60, 23, 1, 21, 73, 18, 50, 63, 51, 94, 8, 55, 83, 70, 67, 39, 95, 88, 12, 97, 4, 56, 96, 87, 90, 30, 72, 57, 10, 76, 46, 13, 54, 3, 59, 85, 99, 69, 43, 92, 0, 77, 7, 78, 11, 58, 49, 89, 2, 16, 27, 41, 52, 75, 64, 48, 52, 96, 91, 16, 7, 46, 13, 58, 73, 6, 36, 8, 97, 28, 54, 41, 35, 0, 47, 33, 68, 70, 64, 11, 2, 82, 32, 85, 45, 51, 71, 12, 20, 25, 84, 53, 95, 72, 9, 62, 66, 81, 77, 40, 56, 80, 55, 18, 27, 88, 21, 61, 83, 4, 5, 42, 69, 59, 14, 30, 87, 76, 17, 99, 57, 65, 63, 24, 79, 1, 94, 23, 3, 98, 74, 34, 31, 29, 26, 90, 92, 89, 22, 10, 78, 39, 93, 37, 86, 38, 44, 49, 67, 43, 50, 19, 15, 75, 60]);
releaseDate = array2d(JOBS,MACHINES,[647, 384, 431, 216, 833, 419, 603, 532, 430, 294, 424, 565, 45, 214, 104, 339, 697, 594, 459, 834, 821, 447, 847, 656, 343, 96, 613, 75, 88, 719, 841, 199, 487, 538, 83, 348, 481, 713, 406, 691, 890, 768, 78, 579, 354, 395, 382, 489, 510, 237, 77, 737, 40, 385, 488, 520, 173, 119, 41, 721, 772, 507, 144, 614, 540, 670, 236, 799, 282, 281, 195, 519, 655, 194, 804, 213, 453, 153, 186, 152, 131, 752, 686, 212, 364, 132, 795, 203, 722, 601, 759, 646, 383, 53, 331, 290, 578, 52, 576, 762, 292, 11, 78, 763, 497, 205, 1020, 721, 463, 521, 769, 268, 294, 207, 480, 620, 505, 764, 187, 121, 1043, 885, 1018, 68, 206, 145, 632, 847, 375, 755, 754, 478, 863, 194, 991, 82, 493, 482, 1038, 544, 950, 848, 857, 374, 849, 174, 44, 10, 846, 168, 64, 666, 135, 177, 352, 343, 311, 50, 422, 166, 725, 509, 485, 19, 1027, 195, 727, 112, 768, 614, 564, 85, 507, 235, 992, 729, 208, 510, 555, 993, 344, 603, 346, 481, 266, 144, 316, 486, 499, 639, 263, 646, 868, 496, 647, 479, 491, 652, 899, 269, 128, 735, 590, 93, 336, 593, 307, 531, 618, 347, 290, 215, 342, 126, 576, 532, 436, 398, 241, 661, 594, 574, 378, 273, 592, 708, 232, 672, 586, 512, 278, 178, 379, 564, 57, 488, 90, 212, 349, 279, 330, 206, 415, 671, 517, 660, 611, 229, 465, 440, 680, 418, 50, 207, 343, 73, 340, 72, 216, 358, 168, 308, 169, 188, 596, 748, 82, 642, 473, 753, 219, 744, 403, 300, 332, 563, 421, 687, 275, 173, 648, 191, 107, 281, 94, 381, 533, 647, 555, 762, 419, 333, 588, 195, 734, 711, 583, 571, 339, 767, 117, 387, 589, 797, 598, 826, 335, 588, 787, 460, 384, 924, 633, 361, 360, 617, 832, 338, 409, 881, 198, 286, 821, 358, 369, 513, 414, 362, 171, 461, 337, 363, 98, 92, 732, 449, 891, 345, 377, 646, 187, 834, 224, 351, 253, 583, 325, 6, 254, 705, 221, 476, 590, 508, 896, 115, 546, 831, 635, 619, 385, 918, 863, 153, 923, 91, 565, 921, 849, 880, 354, 653, 568, 123, 738, 452, 162, 518, 42, 580, 833, 931, 634, 410, 888, 0, 763, 99, 766, 146, 578, 463, 866, 38, 189, 339, 406, 509, 736, 591, 512, 590, 951, 922, 242, 122, 466, 216, 657, 765, 121, 387, 148, 955, 307, 621, 441, 384, 60, 478, 379, 746, 752, 721, 201, 100, 875, 352, 885, 463, 589, 754, 203, 264, 284, 884, 594, 944, 756, 158, 700, 734, 870, 831, 406, 638, 863, 628, 257, 305, 908, 266, 693, 880, 108, 120, 443, 748, 658, 217, 321, 907, 776, 244, 981, 640, 728, 701, 269, 838, 69, 943, 268, 103, 962, 771, 383, 333, 318, 285, 921, 930, 918, 267, 190, 837, 405, 941, 389, 886, 390, 446, 514, 742, 444, 522, 262, 234, 773, 669]);
dueDate     = array2d(JOBS,MACHINES,[655, 385, 447, 236, 834, 424, 613, 538, 431, 331, 430, 576, 52, 216, 119, 343, 713, 601, 481, 841, 833, 453, 890, 670, 348, 104, 614, 77, 96, 721, 847, 203, 488, 540, 88, 354, 487, 719, 419, 697, 906, 772, 83, 594, 364, 406, 383, 507, 519, 281, 78, 752, 41, 395, 489, 532, 186, 131, 45, 722, 795, 510, 152, 646, 565, 686, 237, 804, 290, 282, 199, 520, 656, 195, 821, 214, 459, 173, 194, 153, 132, 759, 691, 213, 382, 144, 799, 212, 737, 603, 762, 647, 384, 75, 339, 294, 579, 53, 578, 768, 294, 19, 82, 764, 499, 206, 1027, 725, 478, 544, 846, 269, 311, 208, 481, 632, 507, 768, 194, 135, 1051, 899, 1020, 78, 207, 166, 639, 848, 422, 763, 755, 479, 868, 195, 992, 85, 496, 485, 1043, 555, 991, 849, 863, 375, 857, 177, 50, 11, 847, 174, 68, 721, 144, 187, 374, 344, 316, 64, 463, 168, 727, 510, 486, 44, 1038, 205, 729, 121, 769, 620, 603, 112, 509, 263, 993, 754, 235, 521, 564, 1018, 346, 614, 352, 482, 268, 145, 343, 491, 505, 646, 266, 647, 885, 497, 652, 480, 493, 666, 950, 292, 168, 744, 592, 94, 339, 594, 308, 532, 642, 349, 300, 216, 343, 128, 583, 533, 440, 403, 273, 671, 596, 576, 379, 275, 593, 711, 241, 680, 588, 517, 279, 188, 381, 571, 72, 512, 93, 215, 358, 281, 332, 207, 418, 672, 531, 661, 618, 232, 473, 465, 687, 419, 57, 212, 347, 82, 342, 73, 219, 378, 169, 330, 173, 191, 611, 753, 90, 647, 488, 762, 229, 748, 415, 307, 333, 564, 436, 708, 278, 178, 660, 195, 126, 290, 107, 398, 555, 648, 563, 767, 421, 336, 590, 206, 735, 734, 586, 574, 340, 769, 123, 406, 590, 821, 617, 831, 337, 589, 797, 461, 385, 931, 634, 362, 361, 619, 833, 339, 410, 888, 221, 325, 826, 360, 377, 518, 449, 363, 187, 463, 338, 369, 99, 98, 736, 452, 896, 351, 384, 653, 189, 849, 253, 354, 254, 588, 335, 38, 286, 732, 224, 508, 591, 509, 918, 117, 565, 832, 646, 633, 387, 921, 866, 162, 924, 92, 568, 923, 863, 881, 358, 705, 578, 146, 763, 460, 171, 546, 91, 583, 834, 934, 635, 414, 891, 6, 766, 115, 787, 153, 580, 476, 880, 42, 198, 345, 409, 513, 738, 598, 514, 594, 955, 930, 244, 148, 478, 217, 658, 771, 122, 389, 158, 962, 318, 628, 443, 387, 69, 512, 383, 748, 754, 728, 203, 103, 880, 379, 886, 466, 590, 756, 216, 266, 285, 885, 621, 951, 765, 190, 701, 742, 875, 837, 441, 640, 870, 638, 262, 307, 918, 267, 700, 884, 120, 121, 444, 752, 669, 234, 333, 908, 831, 257, 989, 657, 734, 721, 284, 863, 100, 944, 269, 108, 981, 773, 384, 352, 321, 305, 922, 941, 921, 268, 201, 838, 406, 943, 390, 907, 405, 463, 522, 746, 446, 589, 264, 242, 776, 693]);